419 799 337 168 252 128 299 0 62 564
720 295 47 473 388 0 798 417 181 273
333 0 197 709 669 828 151 105 753 295
643 588 532 421 20 225 457 720 105 333
249 474 767 105 168 615 713 80 0 60
798 388 225 0 320 174 532 878 554 87
600 865 144 753 643 47 337 197 699 483
517 623 483 835 0 153 20 805 273 421
544 704 853 600 799 294 228 478 392 160
301 504 419 331 709 581 865 381 615 749
